46
1 0 1
2 1 1
3 0 1
3 2 1
4 0 1
4 1 1
4 2 1
5 1 1
5 2 1
5 3 1
6 0 1
6 2 1
6 3 1
6 5 1
7 1 1
7 3 1
7 4 1
7 6 1
8 1 1
8 7 1
9 0 1
9 1 1
9 2 1
10 1 1
10 5 1
10 7 1
11 0 1
11 1 1
11 4 1
11 5 1
11 6 1
11 7 1
11 8 1
11 9 1
11 10 1
12 2 1
12 4 1
12 7 1
13 2 1
13 3 1
13 4 1
13 7 1
13 8 1
13 11 1
14 1 1
14 2 1
14 3 1
14 4 1
14 6 1
14 8 1
14 9 1
14 11 1
14 13 1
15 0 1
15 1 1
15 2 1
15 4 1
15 6 1
15 7 1
15 8 1
15 12 1
16 1 1
16 2 1
16 3 1
16 4 1
16 5 1
16 6 1
16 8 1
16 11 1
16 12 1
16 13 1
16 14 1
17 0 1
17 1 1
17 2 1
17 4 1
17 5 1
17 6 1
17 7 1
17 9 1
17 13 1
17 14 1
17 15 1
18 2 1
18 3 1
18 4 1
18 5 1
18 6 1
18 7 1
18 15 1
18 17 1
19 0 1
19 2 1
19 3 1
19 6 1
19 10 1
19 11 1
19 13 1
19 14 1
19 16 1
19 18 1
20 0 1
20 1 1
20 3 1
20 4 1
20 9 1
20 11 1
20 12 1
20 13 1
20 15 1
20 16 1
20 17 1
20 18 1
20 19 1
21 0 1
21 4 1
21 5 1
21 7 1
21 10 1
21 11 1
21 14 1
21 18 1
22 4 1
22 5 1
22 6 1
22 11 1
22 17 1
22 18 1
22 19 1
22 20 1
22 21 1
23 0 1
23 3 1
23 5 1
23 12 1
23 14 1
23 15 1
24 0 1
24 2 1
24 6 1
24 9 1
24 10 1
24 13 1
24 18 1
24 19 1
24 23 1
25 1 1
25 9 1
25 10 1
25 15 1
25 17 1
25 19 1
25 21 1
25 24 1
26 3 1
26 5 1
26 6 1
26 7 1
26 9 1
26 10 1
26 14 1
26 17 1
26 18 1
26 20 1
26 21 1
26 23 1
26 24 1
26 25 1
27 1 1
27 2 1
27 3 1
27 8 1
27 9 1
27 10 1
27 11 1
27 14 1
27 21 1
27 23 1
27 24 1
27 25 1
27 26 1
28 0 1
28 2 1
28 6 1
28 7 1
28 9 1
28 10 1
28 12 1
28 17 1
28 18 1
28 19 1
28 21 1
28 24 1
28 27 1
29 0 1
29 2 1
29 6 1
29 7 1
29 8 1
29 9 1
29 10 1
29 11 1
29 12 1
29 13 1
29 14 1
29 15 1
29 16 1
29 17 1
29 19 1
29 20 1
29 25 1
29 26 1
30 0 1
30 3 1
30 4 1
30 5 1
30 6 1
30 8 1
30 11 1
30 15 1
30 16 1
30 17 1
30 20 1
30 21 1
30 27 1
30 28 1
31 0 1
31 6 1
31 9 1
31 11 1
31 13 1
31 15 1
31 16 1
31 20 1
31 21 1
31 22 1
31 23 1
31 27 1
31 28 1
31 30 1
32 0 1
32 3 1
32 6 1
32 8 1
32 11 1
32 12 1
32 13 1
32 15 1
32 16 1
32 18 1
32 21 1
32 22 1
32 25 1
32 27 1
32 28 1
32 30 1
32 31 1
33 2 1
33 4 1
33 5 1
33 9 1
33 10 1
33 11 1
33 15 1
33 17 1
33 18 1
33 21 1
33 22 1
33 24 1
33 26 1
33 28 1
33 31 1
33 32 1
34 4 1
34 6 1
34 8 1
34 9 1
34 11 1
34 12 1
34 13 1
34 14 1
34 15 1
34 17 1
34 18 1
34 20 1
34 21 1
34 25 1
34 27 1
34 29 1
34 33 1
35 0 1
35 7 1
35 9 1
35 11 1
35 14 1
35 16 1
35 19 1
35 20 1
35 22 1
35 29 1
35 30 1
35 31 1
35 32 1
36 1 1
36 3 1
36 5 1
36 6 1
36 7 1
36 8 1
36 10 1
36 11 1
36 13 1
36 14 1
36 15 1
36 17 1
36 21 1
36 22 1
36 23 1
36 24 1
36 25 1
36 27 1
36 28 1
36 29 1
36 30 1
36 31 1
36 32 1
36 33 1
36 35 1
37 2 1
37 6 1
37 9 1
37 10 1
37 14 1
37 15 1
37 16 1
37 18 1
37 19 1
37 21 1
37 27 1
37 30 1
37 33 1
37 35 1
38 0 1
38 1 1
38 4 1
38 5 1
38 6 1
38 8 1
38 9 1
38 12 1
38 13 1
38 18 1
38 19 1
38 20 1
38 21 1
38 22 1
38 23 1
38 25 1
38 26 1
38 27 1
38 30 1
38 31 1
38 32 1
38 34 1
38 37 1
39 2 1
39 6 1
39 9 1
39 11 1
39 12 1
39 13 1
39 14 1
39 15 1
39 16 1
39 17 1
39 20 1
39 22 1
39 23 1
39 25 1
39 27 1
39 28 1
39 29 1
39 31 1
39 33 1
39 34 1
39 36 1
39 38 1
40 2 1
40 3 1
40 5 1
40 6 1
40 10 1
40 11 1
40 15 1
40 16 1
40 17 1
40 18 1
40 19 1
40 24 1
40 25 1
40 26 1
40 27 1
40 29 1
40 30 1
40 32 1
40 34 1
40 35 1
40 36 1
40 37 1
41 0 1
41 8 1
41 11 1
41 12 1
41 13 1
41 18 1
41 19 1
41 20 1
41 21 1
41 22 1
41 23 1
41 24 1
41 25 1
41 26 1
41 28 1
41 29 1
41 30 1
41 33 1
41 35 1
41 37 1
41 38 1
42 0 1
42 1 1
42 4 1
42 5 1
42 7 1
42 13 1
42 15 1
42 17 1
42 18 1
42 19 1
42 22 1
42 24 1
42 25 1
42 27 1
42 30 1
42 32 1
42 33 1
42 34 1
42 38 1
42 40 1
43 3 1
43 4 1
43 5 1
43 6 1
43 7 1
43 8 1
43 10 1
43 13 1
43 15 1
43 18 1
43 21 1
43 23 1
43 24 1
43 25 1
43 27 1
43 30 1
43 34 1
43 38 1
43 39 1
43 41 1
43 42 1
44 0 1
44 4 1
44 5 1
44 9 1
44 10 1
44 12 1
44 13 1
44 18 1
44 19 1
44 23 1
44 26 1
44 28 1
44 29 1
44 30 1
44 31 1
44 32 1
44 33 1
44 36 1
44 38 1
44 42 1
45 1 1
45 7 1
45 8 1
45 9 1
45 11 1
45 12 1
45 13 1
45 16 1
45 19 1
45 20 1
45 22 1
45 25 1
45 27 1
45 30 1
45 31 1
45 32 1
45 33 1
45 36 1
45 37 1
